p cnf 10 37
-10 3 -5 2 4 -6 0
-6 5 10 0
2 -8 -3 0
-2 -9 7 0
4 -10 1 -3 -7 0
5 -7 0
-2 7 0
4 -3 -10 7 8 -2 1 6 0
-10 -4 -7 -9 0
-5 4 -3 0
2 -3 -1 0
6 5 8 3 0
-3 -9 -8 7 0
9 -10 0
3 7 5 0
-7 -6 -4 5 0
4 -6 -8 0
-4 2 7 0
1 -8 -2 0
-10 2 -1 4 -6 -9 0
9 -8 -2 0
-7 10 6 0
6 10 -5 -7 3 0
1 -7 0
1 10 0
8 4 0
-5 -10 0
5 7 9 0
-10 -4 0
-4 6 -3 0
4 1 9 -2 10 8 -5 7 -3 -6 0
5 8 2 0
6 -5 -4 -8 0
-6 1 8 2 5 -3 -10 0
-4 1 0
-4 -7 8 0
-10 -8 0
